data;

param n:=25;
param p:=4;
param r:=[1] 0 [2] 1 [3] 4 [4] 11 [5] 7 [6] 2 [7] 21 [8] 19 [9] 30 [10] 11 [11] 7 [12] 39 [13] 34 [14] 29 [15] 39 [16] 2 [17] 31 [18] 44 [19] 50 [20] 66 [21] 35 [22] 70 [23] 16 [24] 15 [25] 5 ;
param w:=[1] 30 [2] 45 [3] 33 [4] 56 [5] 10 [6] 93 [7] 18 [8] 99 [9] 32 [10] 30 [11] 41 [12] 1 [13] 31 [14] 95 [15] 23 [16] 6 [17] 63 [18] 71 [19] 90 [20] 14 [21] 50 [22] 89 [23] 28 [24] 66 [25] 74 ;

end;
